************************************************************************
file with basedata            : mm63_.bas
initial value random generator: 87643596
************************************************************************
projects                      :  1
jobs (incl. supersource/sink ):  12
horizon                       :  77
RESOURCES
  - renewable                 :  2   R
  - nonrenewable              :  2   N
  - doubly constrained        :  0   D
************************************************************************
PROJECT INFORMATION:
pronr.  #jobs rel.date duedate tardcost  MPM-Time
    1     10      0       11        5       11
************************************************************************
PRECEDENCE RELATIONS:
jobnr.    #modes  #successors   successors
   0        1          3           1   2   3
   1        3          2           4   9
   2        3          3           6   8   9
   3        3          1           8
   4        3          2           5   6
   5        3          2           7  10
   6        3          1          10
   7        3          1           8
   8        3          1          11
   9        3          1          11
  10        3          1          11
  11        1          0        
************************************************************************
REQUESTS/DURATIONS:
jobnr. mode duration  R 1  R 2  R 3  R 4  E(W 1)  E(W 2)
------------------------------------------------------------------------
  0      1     0       0    0    0    0     0       0
  1      1     6      10    2    4    7    72      66
  2      1     1       6    5    4    8    11      12
  3      1     5       8    2    8    8    50      80
  4      1     1       7    7    7    5    14      12
  5      1     2      10    3    8    4    26      24
  6      1     2       9    6    9    7    30      32
  7      1     1      10    4    7    6    14      13
  8      1     1       8    7    2    8    15      10
  9      1     3       5    8    3    9    39      36
 10      1     2       8    5    6   10    26      32
 11      1     0       0    0    0    0     0       0
************************************************************************
RESOURCEAVAILABILITIES:
  R 1  R 2
   43   119
************************************************************************
RESOURCE LIMITS:
jobnr.  l(R 1)  u(R 1)  l(R 2)  u(R 2)
------------------------------------------------------------------------
  0        0       0       0       0
  1        6      12       6      11
  2        6      11       6      12
  3        5      10       8      16
  4        8      14       7      12
  5        7      13       6      12
  6        8      15       9      16
  7        7      14       7      13
  8        8      15       5      10
  9        7      13       7      12
 10        7      13       8      16
 11        0       0       0       0
************************************************************************
SCENARIOS:
------------------------------------------------------------------------
RESOURCE k = 1
s = 1: (0, 74, 14, 62, 13, 24, 45, 17, 25, 38, 37, 0)
s = 2: (0, 87, 11, 62, 19, 41, 20, 13, 13, 66, 27, 0)
s = 3: (0, 69, 16, 35, 13, 22, 23, 13, 16, 36, 31, 0)
s = 4: (0, 72, 8, 63, 24, 25, 31, 21, 12, 49, 21, 0)
s = 5: (0, 54, 18, 37, 14, 24, 21, 11, 11, 30, 21, 0)
s = 6: (0, 49, 13, 66, 15, 28, 44, 24, 19, 38, 30, 0)
s = 7: (0, 87, 16, 81, 15, 23, 37, 19, 18, 47, 21, 0)
s = 8: (0, 82, 10, 80, 14, 25, 62, 10, 22, 26, 38, 0)
s = 9: (0, 39, 10, 41, 11, 25, 28, 14, 14, 23, 26, 0)
s = 10: (0, 63, 9, 37, 16, 16, 29, 13, 10, 55, 35, 0)
s = 11: (0, 53, 20, 45, 11, 18, 33, 14, 16, 34, 27, 0)
s = 12: (0, 74, 13, 52, 11, 36, 39, 20, 19, 31, 29, 0)
s = 13: (0, 89, 14, 32, 14, 18, 47, 13, 12, 43, 27, 0)
s = 14: (0, 76, 8, 43, 13, 19, 18, 16, 12, 35, 40, 0)
s = 15: (0, 52, 10, 44, 20, 18, 28, 21, 18, 56, 29, 0)
s = 16: (0, 78, 18, 40, 16, 17, 34, 19, 11, 37, 28, 0)
s = 17: (0, 69, 19, 52, 15, 26, 28, 15, 24, 32, 20, 0)
s = 18: (0, 76, 8, 46, 13, 25, 21, 10, 16, 32, 22, 0)
s = 19: (0, 80, 8, 30, 16, 38, 37, 21, 19, 23, 31, 0)
s = 20: (0, 44, 14, 44, 11, 22, 32, 17, 16, 36, 36, 0)
s = 21: (0, 97, 12, 50, 12, 21, 19, 11, 9, 30, 31, 0)
s = 22: (0, 113, 12, 36, 14, 32, 29, 13, 14, 44, 15, 0)
s = 23: (0, 82, 9, 37, 15, 40, 34, 11, 20, 49, 18, 0)
s = 24: (0, 73, 12, 48, 9, 28, 50, 12, 11, 59, 21, 0)
s = 25: (0, 44, 11, 57, 16, 18, 20, 13, 17, 35, 21, 0)
s = 26: (0, 77, 13, 55, 9, 21, 22, 12, 12, 49, 34, 0)
s = 27: (0, 126, 7, 74, 13, 25, 22, 15, 11, 52, 28, 0)
s = 28: (0, 62, 8, 57, 11, 30, 32, 15, 15, 39, 34, 0)
s = 29: (0, 71, 12, 58, 9, 30, 29, 9, 17, 45, 28, 0)
s = 30: (0, 93, 8, 50, 11, 33, 21, 11, 9, 43, 30, 0)
s = 31: (0, 94, 12, 61, 14, 31, 27, 13, 10, 36, 32, 0)
s = 32: (0, 44, 9, 56, 8, 35, 32, 23, 18, 54, 36, 0)
s = 33: (0, 88, 11, 48, 19, 29, 30, 16, 12, 43, 20, 0)
s = 34: (0, 79, 11, 44, 15, 39, 25, 19, 17, 43, 23, 0)
s = 35: (0, 137, 9, 59, 14, 29, 20, 14, 26, 22, 21, 0)
s = 36: (0, 67, 8, 69, 11, 25, 34, 9, 9, 23, 28, 0)
s = 37: (0, 56, 12, 60, 17, 29, 43, 12, 13, 51, 20, 0)
s = 38: (0, 73, 15, 36, 9, 22, 41, 14, 11, 28, 16, 0)
s = 39: (0, 68, 9, 41, 13, 14, 18, 9, 12, 52, 39, 0)
s = 40: (0, 58, 12, 40, 13, 25, 21, 9, 19, 39, 37, 0)
s = 41: (0, 102, 16, 60, 19, 33, 22, 16, 26, 51, 18, 0)
s = 42: (0, 64, 13, 43, 11, 45, 28, 15, 20, 28, 36, 0)
s = 43: (0, 72, 15, 46, 14, 29, 39, 13, 18, 39, 23, 0)
s = 44: (0, 50, 9, 56, 18, 22, 22, 12, 25, 23, 19, 0)
s = 45: (0, 76, 16, 59, 21, 27, 21, 13, 19, 33, 42, 0)
s = 46: (0, 90, 11, 35, 16, 43, 26, 10, 21, 33, 29, 0)
s = 47: (0, 65, 7, 75, 14, 20, 46, 14, 10, 24, 39, 0)
s = 48: (0, 77, 12, 44, 18, 19, 37, 12, 10, 35, 18, 0)
s = 49: (0, 68, 13, 33, 13, 21, 24, 13, 15, 57, 35, 0)
s = 50: (0, 94, 11, 33, 8, 38, 27, 10, 10, 32, 19, 0)
s = 51: (0, 45, 15, 62, 13, 20, 35, 11, 19, 42, 24, 0)
s = 52: (0, 65, 10, 41, 21, 16, 25, 16, 13, 33, 19, 0)
s = 53: (0, 64, 13, 61, 21, 23, 33, 28, 11, 31, 32, 0)
s = 54: (0, 97, 9, 39, 12, 36, 32, 14, 12, 47, 29, 0)
s = 55: (0, 50, 13, 46, 11, 22, 24, 16, 17, 26, 22, 0)
s = 56: (0, 59, 7, 60, 16, 26, 33, 15, 23, 48, 22, 0)
s = 57: (0, 104, 7, 35, 12, 30, 39, 16, 15, 50, 22, 0)
s = 58: (0, 61, 12, 33, 13, 28, 32, 16, 27, 23, 16, 0)
s = 59: (0, 88, 13, 51, 16, 41, 28, 9, 14, 31, 27, 0)
s = 60: (0, 102, 10, 50, 12, 33, 43, 9, 17, 36, 31, 0)
s = 61: (0, 66, 11, 44, 23, 36, 23, 13, 23, 43, 20, 0)
s = 62: (0, 73, 17, 62, 9, 27, 33, 13, 11, 38, 31, 0)
s = 63: (0, 57, 12, 46, 15, 17, 25, 22, 13, 48, 18, 0)
s = 64: (0, 53, 7, 65, 10, 28, 34, 18, 18, 21, 36, 0)
s = 65: (0, 98, 10, 70, 10, 18, 18, 11, 20, 43, 23, 0)
s = 66: (0, 94, 7, 30, 14, 19, 37, 10, 15, 43, 33, 0)
s = 67: (0, 47, 10, 36, 12, 22, 23, 14, 14, 51, 29, 0)
s = 68: (0, 86, 10, 37, 17, 20, 24, 19, 9, 27, 18, 0)
s = 69: (0, 50, 13, 42, 14, 28, 22, 10, 13, 27, 46, 0)
s = 70: (0, 53, 16, 49, 15, 23, 19, 14, 20, 36, 19, 0)
s = 71: (0, 84, 12, 38, 11, 31, 21, 15, 15, 33, 19, 0)
s = 72: (0, 90, 7, 31, 18, 35, 28, 16, 18, 33, 24, 0)
s = 73: (0, 95, 9, 51, 24, 26, 34, 12, 19, 57, 54, 0)
s = 74: (0, 64, 13, 27, 15, 27, 30, 18, 17, 38, 21, 0)
s = 75: (0, 62, 16, 35, 12, 32, 21, 15, 14, 47, 43, 0)
s = 76: (0, 88, 15, 32, 12, 46, 33, 19, 10, 64, 22, 0)
s = 77: (0, 62, 17, 38, 24, 22, 25, 18, 16, 27, 23, 0)
s = 78: (0, 85, 9, 46, 16, 33, 34, 9, 12, 27, 36, 0)
s = 79: (0, 63, 11, 31, 10, 23, 21, 15, 21, 44, 30, 0)
s = 80: (0, 82, 19, 65, 16, 43, 21, 16, 16, 23, 32, 0)
s = 81: (0, 54, 12, 39, 15, 28, 25, 11, 13, 37, 28, 0)
s = 82: (0, 63, 16, 49, 13, 28, 27, 17, 29, 40, 26, 0)
s = 83: (0, 107, 9, 36, 23, 19, 25, 10, 14, 38, 36, 0)
s = 84: (0, 74, 16, 45, 10, 18, 20, 16, 11, 39, 35, 0)
s = 85: (0, 97, 14, 62, 17, 25, 22, 17, 13, 48, 26, 0)
s = 86: (0, 84, 11, 64, 18, 18, 24, 12, 11, 39, 24, 0)
s = 87: (0, 64, 9, 54, 13, 21, 25, 11, 11, 37, 27, 0)
s = 88: (0, 52, 9, 54, 13, 31, 21, 11, 17, 41, 31, 0)
s = 89: (0, 90, 15, 62, 17, 27, 21, 16, 15, 53, 42, 0)
s = 90: (0, 72, 10, 34, 17, 24, 21, 20, 14, 46, 32, 0)
s = 91: (0, 66, 10, 67, 8, 33, 16, 9, 15, 27, 20, 0)
s = 92: (0, 83, 15, 53, 18, 45, 29, 15, 11, 32, 26, 0)
s = 93: (0, 140, 16, 44, 26, 25, 21, 13, 15, 26, 32, 0)
s = 94: (0, 119, 14, 45, 14, 17, 32, 20, 17, 35, 34, 0)
s = 95: (0, 98, 7, 42, 17, 20, 36, 12, 19, 31, 16, 0)
s = 96: (0, 85, 9, 54, 23, 33, 24, 11, 18, 50, 26, 0)
s = 97: (0, 69, 9, 91, 12, 19, 26, 10, 12, 59, 21, 0)
s = 98: (0, 84, 12, 70, 10, 30, 28, 14, 9, 29, 48, 0)
s = 99: (0, 119, 10, 59, 15, 27, 30, 10, 21, 30, 22, 0)
s = 100: (0, 61, 8, 57, 10, 27, 42, 11, 16, 27, 23, 0)
s = 101: (0, 86, 10, 62, 14, 34, 36, 17, 15, 27, 20, 0)
s = 102: (0, 81, 11, 29, 15, 34, 36, 14, 14, 27, 22, 0)
s = 103: (0, 75, 12, 69, 14, 27, 27, 13, 20, 29, 44, 0)
s = 104: (0, 79, 14, 29, 13, 18, 39, 12, 9, 31, 32, 0)
s = 105: (0, 55, 10, 39, 16, 20, 43, 16, 19, 70, 21, 0)
s = 106: (0, 53, 11, 47, 17, 27, 32, 15, 18, 36, 24, 0)
s = 107: (0, 57, 19, 51, 12, 29, 40, 16, 14, 51, 37, 0)
s = 108: (0, 62, 9, 46, 13, 32, 35, 10, 24, 23, 26, 0)
s = 109: (0, 59, 11, 34, 15, 23, 23, 10, 19, 24, 28, 0)
s = 110: (0, 66, 19, 45, 11, 29, 39, 10, 23, 45, 26, 0)
s = 111: (0, 78, 13, 45, 11, 37, 20, 13, 15, 39, 33, 0)
s = 112: (0, 72, 16, 41, 11, 22, 20, 12, 18, 68, 39, 0)
s = 113: (0, 81, 9, 66, 14, 21, 26, 13, 18, 29, 30, 0)
s = 114: (0, 80, 20, 64, 22, 32, 20, 11, 17, 46, 18, 0)
s = 115: (0, 58, 8, 53, 9, 29, 17, 14, 24, 32, 36, 0)
s = 116: (0, 61, 7, 50, 13, 18, 41, 13, 10, 26, 22, 0)
s = 117: (0, 109, 8, 56, 11, 20, 29, 19, 14, 32, 31, 0)
s = 118: (0, 85, 15, 26, 10, 24, 26, 11, 13, 29, 27, 0)
s = 119: (0, 82, 15, 83, 14, 20, 17, 14, 16, 31, 17, 0)
s = 120: (0, 72, 9, 54, 12, 22, 22, 14, 27, 45, 18, 0)
s = 121: (0, 75, 6, 42, 10, 33, 37, 14, 18, 21, 16, 0)
s = 122: (0, 89, 19, 26, 11, 31, 25, 11, 15, 28, 23, 0)
s = 123: (0, 78, 21, 57, 12, 38, 37, 22, 18, 35, 35, 0)
s = 124: (0, 59, 11, 66, 12, 26, 43, 15, 13, 46, 20, 0)
s = 125: (0, 97, 8, 80, 13, 21, 27, 13, 23, 48, 21, 0)
s = 126: (0, 48, 7, 53, 16, 24, 17, 22, 19, 46, 16, 0)
s = 127: (0, 44, 16, 43, 8, 22, 18, 11, 27, 34, 25, 0)
s = 128: (0, 85, 16, 51, 11, 35, 26, 13, 11, 35, 49, 0)
s = 129: (0, 73, 8, 57, 15, 28, 20, 16, 16, 43, 16, 0)
s = 130: (0, 63, 9, 70, 11, 15, 24, 13, 18, 37, 38, 0)
s = 131: (0, 81, 10, 42, 15, 43, 48, 17, 23, 43, 34, 0)
s = 132: (0, 62, 10, 32, 19, 47, 33, 11, 17, 38, 23, 0)
s = 133: (0, 127, 19, 46, 13, 23, 29, 22, 13, 62, 17, 0)
s = 134: (0, 79, 12, 37, 14, 19, 22, 19, 10, 29, 27, 0)
s = 135: (0, 68, 9, 52, 17, 18, 32, 11, 24, 40, 48, 0)
s = 136: (0, 75, 8, 30, 13, 25, 43, 10, 20, 30, 19, 0)
s = 137: (0, 112, 15, 53, 20, 20, 41, 13, 21, 37, 23, 0)
s = 138: (0, 117, 13, 63, 11, 22, 22, 22, 15, 30, 32, 0)
s = 139: (0, 65, 12, 48, 21, 35, 37, 9, 17, 75, 19, 0)
s = 140: (0, 100, 16, 42, 11, 23, 41, 13, 19, 32, 45, 0)
s = 141: (0, 78, 14, 37, 10, 18, 33, 15, 13, 64, 32, 0)
s = 142: (0, 85, 11, 53, 22, 18, 38, 9, 13, 45, 20, 0)
s = 143: (0, 65, 14, 65, 9, 32, 44, 9, 16, 39, 21, 0)
s = 144: (0, 60, 11, 58, 12, 22, 35, 12, 15, 35, 33, 0)
s = 145: (0, 45, 11, 54, 13, 52, 28, 9, 20, 32, 31, 0)
s = 146: (0, 50, 14, 72, 14, 29, 31, 18, 13, 26, 23, 0)
s = 147: (0, 107, 9, 45, 11, 22, 39, 12, 11, 30, 32, 0)
s = 148: (0, 63, 8, 47, 13, 23, 33, 13, 19, 39, 29, 0)
s = 149: (0, 47, 10, 62, 13, 22, 30, 12, 15, 38, 36, 0)
s = 150: (0, 60, 13, 39, 12, 23, 25, 10, 11, 44, 25, 0)
s = 151: (0, 67, 7, 51, 11, 25, 34, 15, 27, 30, 34, 0)
s = 152: (0, 67, 11, 35, 14, 28, 24, 13, 17, 53, 24, 0)
s = 153: (0, 88, 13, 37, 18, 15, 36, 12, 12, 42, 21, 0)
s = 154: (0, 64, 10, 40, 23, 15, 32, 21, 13, 63, 33, 0)
s = 155: (0, 64, 10, 40, 13, 45, 32, 13, 13, 59, 22, 0)
s = 156: (0, 90, 17, 55, 19, 30, 35, 11, 19, 52, 19, 0)
s = 157: (0, 59, 15, 35, 15, 18, 31, 19, 13, 28, 24, 0)
s = 158: (0, 62, 11, 43, 10, 30, 31, 17, 19, 37, 28, 0)
s = 159: (0, 103, 8, 60, 12, 24, 31, 21, 10, 30, 37, 0)
s = 160: (0, 121, 7, 41, 15, 31, 25, 17, 14, 45, 30, 0)
s = 161: (0, 64, 13, 42, 16, 28, 34, 16, 14, 50, 21, 0)
s = 162: (0, 53, 13, 75, 13, 31, 22, 14, 11, 38, 19, 0)
s = 163: (0, 128, 7, 39, 8, 20, 36, 17, 10, 34, 19, 0)
s = 164: (0, 114, 14, 35, 24, 35, 36, 13, 14, 60, 24, 0)
s = 165: (0, 54, 13, 48, 14, 37, 31, 12, 15, 28, 21, 0)
s = 166: (0, 109, 17, 81, 9, 18, 40, 13, 10, 48, 30, 0)
s = 167: (0, 44, 12, 31, 13, 29, 42, 15, 13, 29, 15, 0)
s = 168: (0, 52, 10, 69, 20, 34, 40, 14, 12, 42, 33, 0)
s = 169: (0, 99, 10, 44, 17, 20, 29, 12, 17, 28, 33, 0)
s = 170: (0, 57, 17, 37, 13, 20, 28, 8, 12, 26, 26, 0)
s = 171: (0, 53, 9, 38, 17, 29, 42, 24, 17, 61, 18, 0)
s = 172: (0, 49, 13, 65, 8, 21, 26, 11, 20, 45, 17, 0)
s = 173: (0, 86, 17, 45, 18, 22, 35, 12, 9, 31, 35, 0)
s = 174: (0, 48, 9, 51, 15, 35, 19, 13, 15, 28, 26, 0)
s = 175: (0, 44, 12, 49, 18, 26, 38, 13, 12, 40, 19, 0)
s = 176: (0, 68, 11, 46, 13, 21, 25, 9, 24, 43, 26, 0)
s = 177: (0, 56, 11, 63, 12, 21, 30, 12, 21, 39, 24, 0)
s = 178: (0, 135, 8, 56, 21, 28, 32, 13, 12, 33, 35, 0)
s = 179: (0, 78, 9, 39, 19, 28, 24, 20, 17, 45, 27, 0)
s = 180: (0, 56, 18, 50, 12, 27, 34, 13, 14, 36, 21, 0)
s = 181: (0, 59, 10, 48, 12, 26, 17, 11, 16, 37, 42, 0)
s = 182: (0, 85, 11, 31, 17, 28, 28, 12, 11, 44, 25, 0)
s = 183: (0, 82, 13, 64, 20, 17, 19, 19, 16, 34, 31, 0)
s = 184: (0, 51, 7, 31, 15, 32, 35, 18, 13, 80, 25, 0)
s = 185: (0, 51, 10, 44, 15, 31, 47, 9, 12, 36, 27, 0)
s = 186: (0, 63, 8, 33, 10, 30, 24, 14, 24, 23, 26, 0)
s = 187: (0, 54, 9, 60, 10, 51, 30, 25, 18, 43, 20, 0)
s = 188: (0, 86, 10, 38, 15, 33, 21, 11, 13, 33, 23, 0)
s = 189: (0, 80, 13, 39, 11, 21, 22, 14, 19, 30, 17, 0)
s = 190: (0, 72, 9, 45, 12, 34, 25, 14, 15, 39, 26, 0)
s = 191: (0, 91, 10, 36, 18, 24, 37, 13, 21, 23, 14, 0)
s = 192: (0, 58, 13, 79, 16, 37, 20, 15, 14, 24, 19, 0)
s = 193: (0, 67, 10, 61, 27, 33, 54, 22, 18, 51, 18, 0)
s = 194: (0, 52, 12, 55, 16, 28, 43, 11, 15, 59, 17, 0)
s = 195: (0, 69, 14, 40, 9, 27, 28, 17, 16, 45, 41, 0)
s = 196: (0, 98, 15, 45, 14, 38, 19, 9, 20, 22, 26, 0)
s = 197: (0, 102, 16, 44, 17, 24, 18, 12, 18, 35, 23, 0)
s = 198: (0, 42, 11, 55, 11, 19, 21, 18, 10, 20, 17, 0)
s = 199: (0, 87, 8, 34, 18, 22, 21, 22, 13, 39, 22, 0)
s = 200: (0, 102, 12, 44, 16, 21, 39, 14, 22, 37, 24, 0)
------------------------------------------------------------------------
RESOURCE k = 2
s = 1: (0, 68, 15, 99, 12, 23, 48, 16, 17, 35, 45, 0)
s = 2: (0, 80, 12, 98, 16, 38, 22, 12, 9, 61, 33, 0)
s = 3: (0, 63, 17, 55, 12, 20, 25, 12, 11, 34, 38, 0)
s = 4: (0, 66, 9, 100, 21, 23, 33, 19, 8, 45, 26, 0)
s = 5: (0, 50, 20, 59, 12, 22, 22, 10, 7, 28, 25, 0)
s = 6: (0, 45, 14, 105, 13, 26, 47, 22, 13, 35, 37, 0)
s = 7: (0, 80, 17, 129, 13, 21, 39, 18, 12, 43, 25, 0)
s = 8: (0, 75, 11, 128, 12, 23, 66, 10, 15, 24, 47, 0)
s = 9: (0, 36, 11, 65, 10, 24, 30, 13, 10, 21, 32, 0)
s = 10: (0, 58, 9, 59, 14, 14, 30, 12, 7, 50, 43, 0)
s = 11: (0, 49, 22, 72, 10, 16, 35, 13, 11, 31, 33, 0)
s = 12: (0, 68, 14, 82, 9, 34, 41, 19, 13, 29, 35, 0)
s = 13: (0, 82, 16, 52, 12, 17, 50, 12, 8, 40, 33, 0)
s = 14: (0, 70, 8, 69, 11, 18, 19, 15, 8, 32, 50, 0)
s = 15: (0, 48, 11, 71, 17, 17, 29, 19, 12, 52, 36, 0)
s = 16: (0, 72, 20, 63, 14, 16, 36, 17, 7, 35, 34, 0)
s = 17: (0, 64, 21, 84, 13, 24, 30, 14, 16, 30, 24, 0)
s = 18: (0, 69, 9, 73, 11, 23, 23, 9, 11, 30, 27, 0)
s = 19: (0, 73, 9, 47, 13, 35, 39, 19, 13, 21, 38, 0)
s = 20: (0, 40, 16, 70, 10, 20, 34, 16, 11, 33, 44, 0)
s = 21: (0, 89, 13, 79, 10, 20, 20, 11, 6, 28, 38, 0)
s = 22: (0, 104, 13, 57, 12, 29, 31, 12, 10, 40, 18, 0)
s = 23: (0, 75, 9, 59, 13, 37, 36, 10, 13, 45, 22, 0)
s = 24: (0, 67, 13, 77, 8, 26, 53, 11, 7, 55, 26, 0)
s = 25: (0, 41, 12, 90, 14, 17, 21, 12, 11, 32, 25, 0)
s = 26: (0, 71, 14, 87, 8, 20, 23, 11, 8, 46, 41, 0)
s = 27: (0, 116, 8, 118, 12, 23, 24, 14, 8, 48, 34, 0)
s = 28: (0, 57, 9, 90, 10, 27, 34, 14, 10, 36, 42, 0)
s = 29: (0, 65, 13, 92, 8, 28, 30, 9, 12, 41, 35, 0)
s = 30: (0, 85, 9, 79, 9, 30, 22, 10, 6, 40, 37, 0)
s = 31: (0, 86, 13, 97, 12, 29, 29, 12, 7, 33, 40, 0)
s = 32: (0, 40, 9, 90, 7, 33, 34, 21, 12, 50, 44, 0)
s = 33: (0, 81, 12, 76, 16, 26, 32, 15, 8, 39, 25, 0)
s = 34: (0, 73, 11, 70, 13, 36, 26, 17, 12, 39, 28, 0)
s = 35: (0, 126, 10, 94, 12, 27, 21, 13, 17, 20, 26, 0)
s = 36: (0, 61, 9, 110, 9, 23, 37, 9, 6, 21, 34, 0)
s = 37: (0, 51, 13, 96, 15, 27, 46, 11, 9, 47, 25, 0)
s = 38: (0, 67, 16, 57, 8, 20, 44, 13, 7, 26, 20, 0)
s = 39: (0, 63, 9, 65, 11, 13, 19, 8, 8, 48, 48, 0)
s = 40: (0, 53, 13, 63, 11, 23, 23, 9, 13, 36, 46, 0)
s = 41: (0, 94, 18, 96, 17, 30, 24, 15, 17, 47, 22, 0)
s = 42: (0, 59, 14, 69, 9, 41, 30, 14, 14, 26, 44, 0)
s = 43: (0, 66, 16, 73, 12, 26, 42, 12, 12, 36, 28, 0)
s = 44: (0, 46, 10, 89, 15, 21, 23, 11, 17, 21, 23, 0)
s = 45: (0, 70, 17, 94, 18, 25, 22, 12, 13, 31, 51, 0)
s = 46: (0, 82, 12, 56, 14, 39, 28, 10, 14, 31, 35, 0)
s = 47: (0, 60, 8, 120, 12, 18, 49, 13, 7, 22, 48, 0)
s = 48: (0, 71, 13, 70, 16, 18, 39, 11, 7, 32, 22, 0)
s = 49: (0, 62, 14, 53, 11, 20, 26, 12, 10, 53, 43, 0)
s = 50: (0, 86, 12, 53, 7, 35, 29, 9, 7, 29, 23, 0)
s = 51: (0, 41, 17, 99, 11, 18, 37, 10, 13, 39, 29, 0)
s = 52: (0, 60, 11, 65, 18, 15, 26, 15, 9, 31, 24, 0)
s = 53: (0, 59, 14, 98, 18, 21, 35, 26, 8, 29, 39, 0)
s = 54: (0, 89, 10, 63, 11, 33, 34, 13, 8, 43, 35, 0)
s = 55: (0, 45, 14, 74, 10, 20, 26, 14, 11, 24, 27, 0)
s = 56: (0, 54, 7, 96, 13, 24, 35, 14, 16, 44, 27, 0)
s = 57: (0, 95, 8, 56, 10, 28, 42, 15, 10, 46, 27, 0)
s = 58: (0, 56, 13, 53, 11, 26, 34, 15, 18, 21, 20, 0)
s = 59: (0, 81, 14, 82, 14, 38, 29, 9, 10, 29, 33, 0)
s = 60: (0, 94, 11, 79, 10, 30, 46, 9, 12, 33, 38, 0)
s = 61: (0, 60, 12, 70, 19, 33, 24, 12, 15, 40, 25, 0)
s = 62: (0, 67, 19, 99, 8, 25, 36, 12, 8, 35, 38, 0)
s = 63: (0, 53, 13, 73, 13, 16, 27, 21, 9, 44, 21, 0)
s = 64: (0, 49, 7, 103, 8, 26, 36, 16, 12, 19, 44, 0)
s = 65: (0, 90, 11, 111, 9, 17, 19, 10, 14, 39, 29, 0)
s = 66: (0, 86, 8, 48, 12, 17, 39, 9, 10, 40, 41, 0)
s = 67: (0, 43, 11, 58, 11, 21, 24, 13, 10, 47, 36, 0)
s = 68: (0, 79, 11, 60, 15, 18, 26, 17, 6, 25, 21, 0)
s = 69: (0, 46, 14, 67, 12, 26, 24, 9, 9, 25, 56, 0)
s = 70: (0, 49, 18, 78, 13, 21, 21, 13, 13, 33, 24, 0)
s = 71: (0, 77, 13, 61, 10, 29, 23, 14, 10, 30, 23, 0)
s = 72: (0, 82, 7, 50, 16, 32, 30, 15, 12, 30, 30, 0)
s = 73: (0, 87, 9, 81, 20, 24, 36, 11, 13, 53, 66, 0)
s = 74: (0, 59, 14, 43, 13, 25, 31, 17, 12, 35, 26, 0)
s = 75: (0, 57, 17, 55, 11, 30, 22, 14, 9, 43, 53, 0)
s = 76: (0, 81, 17, 51, 10, 43, 35, 17, 7, 59, 26, 0)
s = 77: (0, 57, 18, 60, 21, 21, 27, 16, 11, 25, 28, 0)
s = 78: (0, 78, 10, 73, 14, 30, 36, 8, 8, 25, 44, 0)
s = 79: (0, 58, 12, 50, 9, 22, 22, 14, 14, 41, 37, 0)
s = 80: (0, 76, 21, 104, 14, 40, 23, 15, 11, 21, 39, 0)
s = 81: (0, 49, 13, 61, 13, 26, 27, 10, 9, 34, 34, 0)
s = 82: (0, 58, 17, 79, 11, 26, 29, 16, 20, 37, 32, 0)
s = 83: (0, 98, 10, 57, 20, 18, 27, 9, 9, 35, 45, 0)
s = 84: (0, 68, 18, 71, 9, 16, 21, 15, 7, 36, 43, 0)
s = 85: (0, 89, 15, 99, 15, 23, 23, 16, 9, 44, 32, 0)
s = 86: (0, 77, 12, 103, 15, 17, 26, 11, 8, 36, 30, 0)
s = 87: (0, 59, 9, 86, 11, 19, 26, 10, 8, 34, 33, 0)
s = 88: (0, 48, 9, 86, 11, 28, 23, 10, 11, 38, 37, 0)
s = 89: (0, 83, 17, 99, 15, 25, 22, 15, 10, 49, 51, 0)
s = 90: (0, 66, 10, 54, 14, 22, 23, 18, 9, 42, 40, 0)
s = 91: (0, 61, 10, 106, 7, 30, 17, 9, 10, 25, 24, 0)
s = 92: (0, 76, 17, 85, 16, 41, 30, 14, 8, 29, 32, 0)
s = 93: (0, 129, 17, 71, 23, 23, 22, 12, 10, 24, 39, 0)
s = 94: (0, 109, 15, 71, 12, 16, 34, 18, 11, 32, 42, 0)
s = 95: (0, 90, 8, 67, 15, 19, 38, 11, 13, 29, 20, 0)
s = 96: (0, 78, 10, 86, 20, 31, 26, 10, 12, 47, 32, 0)
s = 97: (0, 63, 10, 145, 11, 18, 27, 9, 8, 55, 25, 0)
s = 98: (0, 77, 13, 112, 8, 27, 30, 13, 6, 27, 60, 0)
s = 99: (0, 109, 10, 95, 13, 25, 32, 9, 14, 27, 27, 0)
s = 100: (0, 56, 9, 91, 9, 25, 45, 10, 11, 25, 28, 0)
s = 101: (0, 79, 11, 99, 12, 32, 38, 16, 10, 25, 25, 0)
s = 102: (0, 74, 12, 46, 13, 32, 38, 13, 9, 25, 27, 0)
s = 103: (0, 69, 13, 110, 12, 25, 28, 12, 14, 27, 54, 0)
s = 104: (0, 72, 15, 46, 11, 17, 42, 11, 6, 29, 40, 0)
s = 105: (0, 51, 11, 62, 13, 18, 46, 14, 13, 65, 26, 0)
s = 106: (0, 49, 12, 75, 15, 25, 34, 14, 12, 34, 29, 0)
s = 107: (0, 52, 20, 81, 10, 27, 43, 14, 10, 47, 45, 0)
s = 108: (0, 57, 10, 74, 11, 29, 37, 9, 16, 22, 32, 0)
s = 109: (0, 54, 12, 55, 13, 21, 25, 9, 13, 22, 34, 0)
s = 110: (0, 61, 20, 71, 9, 27, 42, 10, 15, 41, 32, 0)
s = 111: (0, 71, 14, 72, 10, 34, 21, 13, 10, 36, 40, 0)
s = 112: (0, 66, 17, 66, 9, 20, 21, 11, 12, 63, 47, 0)
s = 113: (0, 75, 10, 106, 12, 19, 28, 12, 12, 27, 37, 0)
s = 114: (0, 74, 21, 101, 19, 29, 21, 10, 12, 43, 22, 0)
s = 115: (0, 54, 9, 85, 8, 27, 18, 13, 16, 30, 44, 0)
s = 116: (0, 56, 7, 79, 11, 16, 44, 12, 7, 24, 27, 0)
s = 117: (0, 100, 9, 89, 10, 19, 31, 17, 9, 30, 38, 0)
s = 118: (0, 78, 16, 42, 9, 22, 27, 10, 9, 27, 33, 0)
s = 119: (0, 75, 17, 133, 12, 19, 18, 13, 11, 29, 21, 0)
s = 120: (0, 66, 10, 86, 10, 20, 23, 13, 18, 42, 22, 0)
s = 121: (0, 69, 7, 67, 8, 30, 39, 13, 12, 19, 19, 0)
s = 122: (0, 82, 21, 42, 9, 29, 27, 10, 10, 25, 29, 0)
s = 123: (0, 71, 22, 90, 10, 35, 39, 20, 12, 33, 42, 0)
s = 124: (0, 54, 12, 105, 10, 24, 46, 14, 9, 43, 24, 0)
s = 125: (0, 89, 8, 128, 11, 20, 28, 12, 16, 44, 25, 0)
s = 126: (0, 44, 8, 85, 14, 22, 18, 21, 13, 42, 20, 0)
s = 127: (0, 41, 17, 68, 7, 21, 19, 11, 18, 31, 30, 0)
s = 128: (0, 78, 17, 81, 10, 32, 28, 12, 8, 32, 61, 0)
s = 129: (0, 67, 9, 91, 13, 26, 22, 15, 11, 40, 20, 0)
s = 130: (0, 58, 10, 112, 10, 14, 26, 13, 12, 35, 47, 0)
s = 131: (0, 74, 11, 67, 13, 40, 51, 16, 15, 40, 42, 0)
s = 132: (0, 57, 11, 51, 17, 43, 35, 10, 12, 35, 28, 0)
s = 133: (0, 117, 21, 73, 12, 22, 31, 21, 9, 57, 21, 0)
s = 134: (0, 73, 13, 59, 12, 17, 23, 18, 7, 27, 33, 0)
s = 135: (0, 63, 9, 83, 15, 17, 34, 11, 16, 37, 59, 0)
s = 136: (0, 69, 9, 48, 11, 23, 46, 10, 13, 28, 23, 0)
s = 137: (0, 102, 16, 85, 17, 18, 43, 12, 14, 34, 28, 0)
s = 138: (0, 107, 14, 101, 10, 20, 24, 21, 10, 28, 40, 0)
s = 139: (0, 60, 13, 76, 18, 32, 39, 9, 11, 69, 24, 0)
s = 140: (0, 92, 17, 67, 10, 21, 44, 12, 13, 30, 55, 0)
s = 141: (0, 72, 16, 59, 9, 17, 35, 14, 9, 59, 40, 0)
s = 142: (0, 78, 12, 85, 19, 17, 41, 8, 9, 42, 25, 0)
s = 143: (0, 60, 15, 104, 8, 29, 47, 8, 11, 36, 25, 0)
s = 144: (0, 55, 12, 92, 11, 21, 38, 11, 10, 32, 40, 0)
s = 145: (0, 41, 12, 86, 11, 48, 30, 9, 13, 30, 38, 0)
s = 146: (0, 46, 15, 114, 12, 26, 33, 17, 9, 24, 29, 0)
s = 147: (0, 99, 10, 72, 10, 20, 42, 11, 8, 28, 39, 0)
s = 148: (0, 57, 8, 75, 12, 22, 35, 12, 13, 36, 35, 0)
s = 149: (0, 44, 10, 100, 11, 21, 32, 11, 10, 36, 44, 0)
s = 150: (0, 55, 14, 63, 10, 22, 26, 9, 7, 41, 31, 0)
s = 151: (0, 62, 8, 81, 9, 23, 36, 14, 18, 27, 42, 0)
s = 152: (0, 61, 12, 55, 12, 25, 25, 12, 11, 49, 29, 0)
s = 153: (0, 81, 14, 60, 16, 14, 38, 11, 8, 39, 25, 0)
s = 154: (0, 58, 11, 64, 20, 14, 34, 20, 9, 58, 40, 0)
s = 155: (0, 59, 11, 64, 12, 42, 34, 12, 9, 54, 27, 0)
s = 156: (0, 82, 18, 87, 17, 28, 38, 11, 13, 48, 23, 0)
s = 157: (0, 54, 17, 56, 13, 17, 33, 17, 9, 26, 30, 0)
s = 158: (0, 57, 12, 69, 9, 28, 33, 16, 13, 34, 35, 0)
s = 159: (0, 95, 9, 95, 11, 22, 33, 19, 7, 28, 46, 0)
s = 160: (0, 111, 8, 65, 13, 29, 27, 16, 10, 42, 37, 0)
s = 161: (0, 59, 14, 67, 14, 26, 36, 15, 10, 46, 26, 0)
s = 162: (0, 49, 15, 120, 11, 29, 23, 13, 7, 35, 24, 0)
s = 163: (0, 117, 8, 62, 7, 19, 38, 16, 7, 31, 24, 0)
s = 164: (0, 104, 15, 55, 20, 32, 39, 12, 9, 55, 30, 0)
s = 165: (0, 50, 15, 77, 12, 34, 33, 11, 10, 26, 26, 0)
s = 166: (0, 100, 18, 129, 8, 17, 42, 12, 7, 44, 37, 0)
s = 167: (0, 40, 13, 50, 11, 27, 44, 14, 9, 27, 18, 0)
s = 168: (0, 48, 11, 109, 17, 31, 43, 13, 8, 39, 41, 0)
s = 169: (0, 91, 10, 69, 14, 19, 31, 11, 12, 26, 40, 0)
s = 170: (0, 52, 19, 59, 11, 18, 29, 8, 8, 24, 32, 0)
s = 171: (0, 48, 10, 61, 15, 27, 44, 22, 11, 57, 23, 0)
s = 172: (0, 45, 14, 104, 7, 19, 27, 10, 13, 41, 21, 0)
s = 173: (0, 79, 18, 72, 16, 20, 37, 11, 6, 29, 42, 0)
s = 174: (0, 44, 10, 81, 13, 32, 20, 12, 10, 26, 32, 0)
s = 175: (0, 40, 13, 78, 16, 24, 41, 12, 8, 37, 23, 0)
s = 176: (0, 62, 12, 74, 11, 19, 27, 8, 16, 40, 32, 0)
s = 177: (0, 51, 12, 100, 10, 20, 32, 12, 14, 36, 30, 0)
s = 178: (0, 124, 8, 89, 18, 26, 34, 12, 8, 30, 43, 0)
s = 179: (0, 72, 10, 62, 16, 26, 25, 18, 12, 41, 33, 0)
s = 180: (0, 51, 19, 80, 11, 25, 36, 12, 10, 33, 26, 0)
s = 181: (0, 54, 11, 76, 11, 24, 18, 11, 11, 34, 51, 0)
s = 182: (0, 78, 12, 49, 15, 26, 30, 11, 7, 40, 31, 0)
s = 183: (0, 75, 14, 101, 17, 16, 20, 18, 11, 31, 38, 0)
s = 184: (0, 47, 8, 50, 13, 30, 37, 17, 9, 73, 31, 0)
s = 185: (0, 47, 10, 70, 13, 29, 51, 9, 8, 33, 33, 0)
s = 186: (0, 57, 8, 52, 8, 28, 26, 13, 16, 22, 32, 0)
s = 187: (0, 50, 9, 95, 9, 47, 32, 23, 12, 40, 24, 0)
s = 188: (0, 79, 11, 61, 13, 30, 22, 10, 9, 30, 28, 0)
s = 189: (0, 74, 14, 62, 9, 19, 24, 13, 13, 28, 21, 0)
s = 190: (0, 66, 10, 71, 10, 31, 26, 13, 10, 36, 31, 0)
s = 191: (0, 83, 11, 57, 16, 22, 40, 12, 14, 21, 18, 0)
s = 192: (0, 53, 14, 126, 14, 34, 22, 14, 9, 22, 24, 0)
s = 193: (0, 62, 11, 98, 23, 30, 58, 20, 12, 47, 22, 0)
s = 194: (0, 48, 13, 88, 14, 26, 46, 10, 10, 54, 21, 0)
s = 195: (0, 63, 15, 64, 8, 25, 30, 16, 11, 41, 50, 0)
s = 196: (0, 90, 17, 72, 12, 35, 20, 8, 14, 21, 32, 0)
s = 197: (0, 94, 17, 71, 15, 22, 20, 12, 12, 32, 28, 0)
s = 198: (0, 38, 12, 88, 9, 17, 23, 17, 7, 19, 21, 0)
s = 199: (0, 80, 8, 54, 16, 20, 22, 20, 9, 36, 27, 0)
s = 200: (0, 93, 13, 71, 14, 19, 41, 13, 15, 34, 29, 0)
************************************************************************
ES/LS-VALUES:
jobnr.   ES(i)    LS(i)
------------------------------------------------------------------------
  0        0        0
  1        0       53
  2        0       65
  3        0       65
  4       11       65
  5       12       68
  6       12       67
  7       16       73
  8       18       75
  9       11       70
 10       16       72
 11       20       77
************************************************************************
BIG-M-VALUES:
M1 = 46, M2 = 269
************************************************************************
